c
c 2020-04-30T18:38:07.075876
c Raymond Wei
c
p cnf 12 40
c
-5 -10 -9 0
3 12 -2 0
-5 -12 6 0
-12 5 -1 0
5 2 -3 0
2 -4 6 0
8 9 4 0
1 10 5 0
10 12 -11 0
10 11 -1 0
8 9 5 0
10 -5 -2 0
-5 12 -9 0
8 9 12 0
2 4 -3 0
1 11 7 0
9 11 -12 0
-7 -6 11 0
4 -11 7 0
-7 12 -11 0
9 -11 7 0
-8 -5 -1 0
-5 -3 7 0
-12 4 5 0
-6 -4 -9 0
2 11 -5 0
-7 10 -4 0
10 11 -3 0
1 10 11 0
-9 -2 -1 0
-7 -4 -1 0
-7 6 -10 0
-8 -5 6 0
-7 -12 -9 0
-8 -7 -2 0
9 11 -1 0
-4 -10 -1 0
1 -4 5 0
8 1 -12 0
2 -5 -10 0
%
0
